p edge 1300 3120
e 1 1025
e 1 1026
e 1 1162
e 1 969
e 1 909
e 1 1081
e 1 1082
e 1 717
e 1 718
e 1 910
e 1 721
e 1 722
e 1 1130
e 1 789
e 1 790
e 1 970
e 1 537
e 1 538
e 1 1161
e 1 1129
e 2 1132
e 2 1027
e 2 1028
e 2 912
e 2 971
e 2 972
e 2 719
e 2 720
e 2 1163
e 2 1084
e 2 723
e 2 724
e 2 1164
e 2 911
e 2 791
e 2 792
e 2 1131
e 2 539
e 2 540
e 2 1083
e 3 989
e 3 277
e 3 278
e 3 990
e 4 992
e 4 991
e 4 279
e 4 280
e 5 961
e 5 962
e 5 457
e 5 458
e 5 365
e 5 366
e 5 401
e 5 402
e 5 565
e 5 566
e 5 1033
e 5 1034
e 6 963
e 6 964
e 6 459
e 6 460
e 6 367
e 6 368
e 6 1036
e 6 403
e 6 404
e 6 567
e 6 568
e 6 1035
e 7 677
e 7 678
e 7 777
e 7 778
e 7 1101
e 7 1102
e 7 917
e 7 918
e 8 679
e 8 680
e 8 779
e 8 780
e 8 1103
e 8 1104
e 8 919
e 8 920
e 9 673
e 9 674
e 9 1138
e 9 925
e 9 1137
e 9 926
e 9 625
e 9 626
e 9 1278
e 9 1277
e 9 477
e 9 478
e 10 675
e 10 676
e 10 1139
e 10 1280
e 10 1140
e 10 627
e 10 628
e 10 927
e 10 1279
e 10 928
e 10 479
e 10 480
e 11 769
e 11 770
e 11 313
e 11 314
e 11 477
e 11 479
e 12 771
e 12 772
e 12 315
e 12 316
e 12 478
e 12 480
e 13 945
e 13 946
e 13 1298
e 13 1297
e 13 465
e 13 466
e 13 921
e 13 922
e 13 829
e 13 830
e 14 1300
e 14 1299
e 14 947
e 14 467
e 14 468
e 14 923
e 14 924
e 14 948
e 14 831
e 14 832
e 15 705
e 15 706
e 15 929
e 15 930
e 15 937
e 15 938
e 15 729
e 15 730
e 16 707
e 16 932
e 16 939
e 16 940
e 16 931
e 16 708
e 16 731
e 16 732
e 17 1297
e 17 905
e 17 906
e 17 1299
e 17 1182
e 17 337
e 17 338
e 17 1181
e 17 597
e 17 598
e 17 1149
e 17 1150
e 18 1300
e 18 907
e 18 908
e 18 1298
e 18 339
e 18 340
e 18 1183
e 18 599
e 18 600
e 18 1184
e 18 1151
e 18 1152
e 19 801
e 19 802
e 19 1009
e 19 261
e 19 262
e 19 1010
e 19 681
e 19 682
e 19 401
e 19 633
e 19 403
e 19 501
e 19 502
e 19 537
e 19 634
e 19 539
e 20 803
e 20 636
e 20 263
e 20 264
e 20 683
e 20 684
e 20 402
e 20 1011
e 20 404
e 20 503
e 20 504
e 20 538
e 20 635
e 20 540
e 20 804
e 20 1012
e 21 1189
e 21 1190
e 21 781
e 21 782
e 21 817
e 21 818
e 21 1241
e 21 1242
e 22 1191
e 22 1192
e 22 783
e 22 784
e 22 819
e 22 820
e 22 1243
e 22 1244
e 23 353
e 23 354
e 23 1029
e 23 1030
e 23 1234
e 23 297
e 23 298
e 23 333
e 23 334
e 23 753
e 23 754
e 23 1017
e 23 1018
e 23 1233
e 24 1236
e 24 355
e 24 356
e 24 1031
e 24 1032
e 24 299
e 24 300
e 24 1235
e 24 335
e 24 336
e 24 755
e 24 756
e 24 1019
e 24 1020
e 25 513
e 25 514
e 25 777
e 25 1290
e 25 779
e 25 1165
e 25 1166
e 25 549
e 25 550
e 25 681
e 25 683
e 25 1289
e 25 949
e 25 950
e 25 585
e 25 586
e 25 741
e 25 742
e 25 361
e 25 362
e 25 745
e 25 757
e 25 758
e 25 746
e 26 515
e 26 516
e 26 778
e 26 1291
e 26 780
e 26 1167
e 26 1168
e 26 364
e 26 551
e 26 552
e 26 682
e 26 684
e 26 951
e 26 952
e 26 1292
e 26 587
e 26 588
e 26 743
e 26 744
e 26 363
e 26 748
e 26 759
e 26 760
e 26 747
e 27 833
e 27 834
e 27 493
e 27 494
e 27 1077
e 27 1078
e 27 505
e 27 506
e 28 835
e 28 836
e 28 495
e 28 496
e 28 1079
e 28 1080
e 28 507
e 28 508
e 29 601
e 29 602
e 30 603
e 30 604
e 31 1225
e 31 1226
e 31 1141
e 31 1142
e 31 697
e 31 698
e 32 1227
e 32 1228
e 32 1143
e 32 1144
e 32 699
e 32 700
e 33 325
e 33 326
e 33 521
e 33 522
e 33 842
e 33 841
e 33 713
e 33 277
e 33 279
e 33 714
e 33 281
e 33 282
e 34 716
e 34 327
e 34 328
e 34 523
e 34 524
e 34 843
e 34 844
e 34 278
e 34 280
e 34 283
e 34 284
e 34 715
e 35 865
e 35 866
e 35 1157
e 35 773
e 35 774
e 35 1218
e 35 329
e 35 330
e 35 1158
e 35 1217
e 35 965
e 35 317
e 35 318
e 35 966
e 36 867
e 36 868
e 36 967
e 36 775
e 36 776
e 36 331
e 36 332
e 36 1219
e 36 1220
e 36 968
e 36 1159
e 36 1160
e 36 319
e 36 320
e 37 293
e 37 294
e 37 1193
e 37 1194
e 37 1049
e 37 1050
e 37 985
e 37 986
e 37 573
e 37 574
e 38 1052
e 38 295
e 38 296
e 38 1195
e 38 1196
e 38 987
e 38 988
e 38 1051
e 38 575
e 38 576
e 39 265
e 39 266
e 39 1133
e 39 1134
e 39 1073
e 39 1074
e 39 953
e 39 954
e 40 267
e 40 268
e 40 1135
e 40 1136
e 40 1075
e 40 1076
e 40 955
e 40 956
e 41 897
e 41 898
e 41 1213
e 41 1069
e 41 1070
e 41 1214
e 41 785
e 41 786
e 41 341
e 41 342
e 41 445
e 41 446
e 42 899
e 42 900
e 42 1071
e 42 1072
e 42 787
e 42 788
e 42 1215
e 42 343
e 42 344
e 42 1216
e 42 447
e 42 448
e 43 549
e 43 1254
e 43 551
e 43 653
e 43 654
e 43 1237
e 43 1238
e 43 1253
e 43 605
e 43 606
e 44 550
e 44 1255
e 44 552
e 44 1256
e 44 655
e 44 656
e 44 1239
e 44 1240
e 44 607
e 44 608
e 45 709
e 45 710
e 45 1169
e 45 1170
e 45 949
e 45 1270
e 45 951
e 45 1269
e 45 477
e 45 480
e 46 711
e 46 712
e 46 1272
e 46 1171
e 46 1172
e 46 950
e 46 1271
e 46 952
e 46 478
e 46 479
e 47 453
e 47 422
e 47 617
e 47 618
e 47 1041
e 47 1042
e 47 421
e 47 454
e 48 423
e 48 455
e 48 456
e 48 619
e 48 620
e 48 1043
e 48 1044
e 48 424
e 49 293
e 49 1191
e 49 295
e 49 941
e 49 333
e 49 942
e 49 335
e 49 1181
e 49 1189
e 49 1021
e 49 1022
e 49 1183
e 50 1190
e 50 294
e 50 296
e 50 1192
e 50 1184
e 50 334
e 50 943
e 50 944
e 50 336
e 50 1182
e 50 1023
e 50 1024
e 51 645
e 51 646
e 51 1085
e 51 665
e 51 1086
e 51 433
e 51 434
e 51 666
e 51 473
e 51 474
e 51 701
e 51 702
e 52 668
e 52 647
e 52 648
e 52 1088
e 52 435
e 52 436
e 52 1087
e 52 475
e 52 476
e 52 667
e 52 703
e 52 704
e 53 657
e 53 453
e 53 455
e 53 658
e 53 1261
e 53 525
e 53 526
e 53 1262
e 53 273
e 53 274
e 53 755
e 53 753
e 54 454
e 54 456
e 54 659
e 54 527
e 54 528
e 54 754
e 54 275
e 54 276
e 54 660
e 54 1263
e 54 756
e 54 1264
e 55 1153
e 55 1154
e 55 741
e 55 838
e 55 743
e 55 457
e 55 459
e 55 843
e 55 841
e 55 373
e 55 374
e 55 837
e 55 469
e 55 933
e 55 413
e 55 414
e 55 934
e 55 470
e 56 1155
e 56 844
e 56 1156
e 56 471
e 56 472
e 56 744
e 56 458
e 56 460
e 56 842
e 56 840
e 56 742
e 56 839
e 56 936
e 56 375
e 56 376
e 56 935
e 56 415
e 56 416
e 57 641
e 57 642
e 57 809
e 57 810
e 57 1101
e 57 1103
e 57 593
e 57 594
e 57 825
e 57 826
e 58 643
e 58 644
e 58 811
e 58 812
e 58 1102
e 58 1104
e 58 595
e 58 596
e 58 827
e 58 828
e 59 609
e 59 610
e 59 1189
e 59 738
e 59 1192
e 59 1297
e 59 1300
e 59 565
e 59 567
e 59 1081
e 59 1083
e 59 1213
e 59 737
e 59 1215
e 60 739
e 60 612
e 60 1190
e 60 1191
e 60 611
e 60 1298
e 60 1299
e 60 740
e 60 566
e 60 568
e 60 1082
e 60 1084
e 60 1214
e 60 1216
e 61 685
e 61 877
e 61 686
e 61 878
e 61 1173
e 61 1174
e 61 893
e 61 894
e 62 879
e 62 880
e 62 687
e 62 1175
e 62 1176
e 62 688
e 62 895
e 62 896
e 63 1216
e 63 997
e 63 998
e 63 1213
e 63 973
e 63 974
e 63 529
e 63 530
e 63 341
e 63 1046
e 63 343
e 63 1045
e 63 761
e 63 762
e 63 1079
e 63 413
e 63 415
e 63 1077
e 64 1078
e 64 999
e 64 1000
e 64 1048
e 64 975
e 64 976
e 64 1214
e 64 531
e 64 532
e 64 342
e 64 1047
e 64 344
e 64 1080
e 64 763
e 64 764
e 64 414
e 64 1215
e 64 416
e 65 497
e 65 498
e 65 621
e 65 622
e 66 499
e 66 500
e 66 623
e 66 624
e 67 357
e 67 358
e 67 461
e 67 462
e 67 373
e 67 375
e 67 1141
e 67 1143
e 68 359
e 68 360
e 68 1144
e 68 463
e 68 464
e 68 374
e 68 376
e 68 1142
e 69 321
e 69 322
e 69 707
e 69 1122
e 69 1121
e 69 301
e 69 302
e 69 1230
e 69 465
e 69 467
e 69 1229
e 69 705
e 70 706
e 70 323
e 70 324
e 70 1124
e 70 1123
e 70 303
e 70 304
e 70 466
e 70 468
e 70 1231
e 70 708
e 70 1232
e 71 645
e 71 647
e 71 1133
e 71 1135
e 71 625
e 71 627
e 72 646
e 72 648
e 72 1134
e 72 1136
e 72 626
e 72 628
e 73 289
e 73 290
e 73 993
e 73 994
e 73 1065
e 73 1066
e 73 749
e 73 750
e 73 633
e 73 635
e 73 445
e 73 447
e 74 291
e 74 292
e 74 1067
e 74 1068
e 74 995
e 74 751
e 74 752
e 74 996
e 74 634
e 74 636
e 74 446
e 74 448
e 75 1249
e 75 1250
e 75 997
e 75 999
e 75 425
e 75 426
e 75 589
e 75 590
e 75 861
e 75 862
e 76 1251
e 76 1252
e 76 998
e 76 1000
e 76 427
e 76 428
e 76 591
e 76 592
e 76 863
e 76 864
e 77 1001
e 77 957
e 77 749
e 77 751
e 77 273
e 77 1097
e 77 275
e 77 1263
e 77 1261
e 77 1098
e 77 1002
e 77 573
e 77 958
e 77 575
e 78 1262
e 78 1264
e 78 1100
e 78 1003
e 78 1004
e 78 750
e 78 752
e 78 274
e 78 276
e 78 1099
e 78 960
e 78 574
e 78 959
e 78 576
e 79 1281
e 79 1282
e 79 905
e 79 907
e 79 877
e 79 879
e 79 689
e 79 690
e 79 573
e 79 576
e 80 1283
e 80 1284
e 80 906
e 80 908
e 80 878
e 80 880
e 80 691
e 80 692
e 80 574
e 80 575
e 81 417
e 81 418
e 81 963
e 81 961
e 81 1161
e 81 1163
e 81 909
e 81 911
e 81 1041
e 81 1043
e 81 281
e 81 283
e 81 925
e 81 927
e 82 1044
e 82 962
e 82 419
e 82 420
e 82 1162
e 82 1164
e 82 910
e 82 912
e 82 1042
e 82 964
e 82 282
e 82 284
e 82 926
e 82 928
e 83 1165
e 83 1294
e 83 1167
e 83 405
e 83 406
e 83 421
e 83 423
e 83 937
e 83 939
e 83 813
e 83 814
e 83 317
e 83 319
e 83 841
e 83 1293
e 83 844
e 83 1113
e 83 1114
e 83 485
e 83 486
e 83 1013
e 83 1014
e 83 889
e 83 890
e 84 1166
e 84 1295
e 84 1168
e 84 407
e 84 408
e 84 422
e 84 424
e 84 938
e 84 940
e 84 815
e 84 816
e 84 318
e 84 320
e 84 842
e 84 843
e 84 1115
e 84 1116
e 84 487
e 84 488
e 84 1296
e 84 1015
e 84 1016
e 84 891
e 84 892
e 85 1057
e 85 1058
e 85 837
e 85 839
e 85 1202
e 85 713
e 85 1005
e 85 715
e 85 1201
e 85 973
e 85 1006
e 85 975
e 85 945
e 85 1106
e 85 947
e 85 1105
e 85 1109
e 85 1110
e 85 541
e 85 542
e 86 1059
e 86 1060
e 86 838
e 86 840
e 86 1204
e 86 714
e 86 716
e 86 1108
e 86 974
e 86 1007
e 86 976
e 86 946
e 86 1107
e 86 948
e 86 1111
e 86 1112
e 86 1203
e 86 1008
e 86 543
e 86 544
e 87 1025
e 87 1027
e 87 1221
e 87 1222
e 87 601
e 87 603
e 88 1026
e 88 1028
e 88 1223
e 88 1224
e 88 602
e 88 604
e 89 1178
e 89 837
e 89 840
e 89 1177
e 89 557
e 89 558
e 89 849
e 89 441
e 89 661
e 89 662
e 89 1049
e 89 442
e 89 377
e 89 378
e 89 1051
e 89 850
e 90 380
e 90 838
e 90 839
e 90 559
e 90 560
e 90 1052
e 90 1179
e 90 851
e 90 852
e 90 1180
e 90 663
e 90 664
e 90 1050
e 90 379
e 90 444
e 90 443
e 91 529
e 91 677
e 91 711
e 91 679
e 91 361
e 91 363
e 91 1197
e 91 1198
e 91 369
e 91 370
e 91 531
e 91 981
e 91 982
e 91 709
e 91 605
e 91 607
e 92 678
e 92 680
e 92 362
e 92 364
e 92 712
e 92 1200
e 92 532
e 92 530
e 92 371
e 92 372
e 92 1199
e 92 983
e 92 984
e 92 710
e 92 606
e 92 608
e 93 689
e 93 977
e 93 691
e 93 978
e 94 690
e 94 979
e 94 692
e 94 980
e 95 385
e 95 386
e 95 669
e 95 357
e 95 359
e 95 649
e 95 650
e 95 1169
e 95 1246
e 95 1171
e 95 670
e 95 785
e 95 1257
e 95 787
e 95 1245
e 95 1258
e 95 637
e 95 638
e 96 387
e 96 388
e 96 1172
e 96 358
e 96 360
e 96 1170
e 96 651
e 96 652
e 96 1248
e 96 1247
e 96 786
e 96 788
e 96 671
e 96 1260
e 96 672
e 96 1259
e 96 639
e 96 640
e 97 1185
e 97 1186
e 97 965
e 97 967
e 97 1293
e 97 1295
e 97 953
e 97 955
e 98 1187
e 98 1188
e 98 966
e 98 968
e 98 1294
e 98 1296
e 98 954
e 98 956
e 99 609
e 99 611
e 99 1129
e 99 1131
e 99 813
e 99 815
e 100 610
e 100 612
e 100 1130
e 100 1132
e 100 814
e 100 816
e 101 489
e 101 490
e 101 1285
e 101 1286
e 102 491
e 102 492
e 102 1287
e 102 1288
e 103 609
e 103 1089
e 103 612
e 103 1241
e 103 1090
e 103 521
e 103 717
e 103 523
e 103 397
e 103 398
e 103 719
e 103 809
e 103 409
e 103 410
e 103 1243
e 103 701
e 103 811
e 103 703
e 104 610
e 104 611
e 104 812
e 104 1091
e 104 522
e 104 524
e 104 718
e 104 399
e 104 400
e 104 1092
e 104 1244
e 104 810
e 104 1242
e 104 411
e 104 412
e 104 702
e 104 720
e 104 704
e 105 869
e 105 870
e 105 393
e 105 394
e 105 945
e 105 948
e 106 871
e 106 872
e 106 395
e 106 396
e 106 946
e 106 947
e 107 577
e 107 578
e 107 1219
e 107 517
e 107 518
e 107 968
e 107 265
e 107 267
e 107 1000
e 107 1217
e 107 533
e 107 534
e 107 965
e 107 997
e 108 1218
e 108 579
e 108 580
e 108 966
e 108 519
e 108 520
e 108 266
e 108 268
e 108 1220
e 108 535
e 108 536
e 108 967
e 108 999
e 108 998
e 109 645
e 109 648
e 109 269
e 109 270
e 109 399
e 109 1177
e 109 1179
e 109 1057
e 109 1059
e 109 1069
e 109 1071
e 109 1037
e 109 397
e 109 1038
e 109 593
e 109 595
e 109 1113
e 109 1115
e 109 617
e 109 619
e 109 1137
e 109 1139
e 109 1021
e 109 1023
e 110 646
e 110 647
e 110 398
e 110 271
e 110 1040
e 110 1178
e 110 1180
e 110 1058
e 110 1060
e 110 1070
e 110 1072
e 110 272
e 110 594
e 110 1116
e 110 596
e 110 1039
e 110 1114
e 110 400
e 110 618
e 110 620
e 110 1138
e 110 1140
e 110 1022
e 110 1024
e 111 649
e 111 733
e 111 651
e 111 269
e 111 271
e 111 734
e 111 1181
e 111 853
e 111 854
e 111 952
e 111 505
e 111 949
e 111 507
e 111 349
e 111 350
e 111 1184
e 112 951
e 112 650
e 112 652
e 112 270
e 112 1183
e 112 272
e 112 856
e 112 950
e 112 735
e 112 855
e 112 736
e 112 506
e 112 508
e 112 1182
e 112 351
e 112 352
e 113 1221
e 113 599
e 113 1223
e 113 489
e 113 491
e 113 908
e 113 857
e 113 905
e 113 533
e 113 535
e 113 858
e 113 473
e 113 597
e 113 475
e 113 1193
e 113 1195
e 114 860
e 114 1222
e 114 1224
e 114 490
e 114 600
e 114 492
e 114 906
e 114 534
e 114 536
e 114 1196
e 114 474
e 114 859
e 114 476
e 114 1194
e 114 907
e 114 598
e 115 1089
e 115 1091
e 115 1093
e 115 1094
e 115 1255
e 115 493
e 115 495
e 115 789
e 115 791
e 115 1017
e 115 1125
e 115 1019
e 115 1253
e 115 1126
e 116 1090
e 116 1092
e 116 1127
e 116 1095
e 116 1096
e 116 1128
e 116 494
e 116 496
e 116 790
e 116 792
e 116 1018
e 116 1020
e 116 1256
e 116 1254
e 117 1285
e 117 1287
e 117 1225
e 117 1227
e 117 305
e 117 306
e 117 309
e 117 310
e 117 345
e 117 346
e 117 1257
e 117 1259
e 118 1260
e 118 1286
e 118 1288
e 118 1226
e 118 1228
e 118 1258
e 118 307
e 118 308
e 118 311
e 118 312
e 118 347
e 118 348
e 119 713
e 119 716
e 119 269
e 119 272
e 120 714
e 120 715
e 120 270
e 120 271
e 121 449
e 121 450
e 121 739
e 121 429
e 121 430
e 121 889
e 121 891
e 121 737
e 122 738
e 122 451
e 122 452
e 122 431
e 122 432
e 122 740
e 122 890
e 122 892
e 123 933
e 123 1015
e 123 935
e 123 1225
e 123 765
e 123 1228
e 123 941
e 123 943
e 123 766
e 123 1049
e 123 1013
e 123 725
e 123 726
e 123 855
e 123 345
e 123 853
e 123 347
e 123 1052
e 123 381
e 123 382
e 124 934
e 124 1050
e 124 936
e 124 1014
e 124 1226
e 124 1227
e 124 856
e 124 942
e 124 854
e 124 1016
e 124 767
e 124 727
e 124 728
e 124 346
e 124 944
e 124 348
e 124 768
e 124 1051
e 124 383
e 124 384
e 125 417
e 125 737
e 125 419
e 125 740
e 125 745
e 125 941
e 125 747
e 125 429
e 125 431
e 125 944
e 125 957
e 125 959
e 126 738
e 126 739
e 126 420
e 126 418
e 126 746
e 126 748
e 126 430
e 126 942
e 126 432
e 126 943
e 126 958
e 126 960
e 127 385
e 127 1153
e 127 387
e 127 581
e 127 582
e 127 1127
e 127 1289
e 127 1291
e 127 685
e 127 1155
e 127 687
e 127 537
e 127 885
e 127 886
e 127 409
e 127 1125
e 127 411
e 127 540
e 128 386
e 128 388
e 128 1126
e 128 583
e 128 584
e 128 1154
e 128 1128
e 128 888
e 128 686
e 128 688
e 128 1156
e 128 887
e 128 410
e 128 1292
e 128 538
e 128 539
e 128 412
e 128 1290
e 129 441
e 129 443
e 129 1149
e 129 1151
e 130 442
e 130 444
e 130 1150
e 130 1152
e 131 801
e 131 803
e 131 1175
e 131 1173
e 131 433
e 131 435
e 131 469
e 131 471
e 131 856
e 131 853
e 132 1174
e 132 802
e 132 804
e 132 1176
e 132 434
e 132 436
e 132 470
e 132 855
e 132 472
e 132 854
e 133 881
e 133 882
e 133 921
e 133 1210
e 133 923
e 133 1209
e 133 1117
e 133 1118
e 134 1212
e 134 883
e 134 884
e 134 922
e 134 1211
e 134 924
e 134 1119
e 134 1120
e 135 1292
e 135 773
e 135 775
e 135 777
e 135 1067
e 135 780
e 135 1261
e 135 1264
e 135 1137
e 135 665
e 135 1140
e 135 629
e 135 630
e 135 1065
e 135 633
e 135 667
e 135 636
e 135 1053
e 135 1054
e 135 1289
e 136 1068
e 136 774
e 136 776
e 136 778
e 136 779
e 136 632
e 136 1262
e 136 1263
e 136 1138
e 136 1139
e 136 1066
e 136 631
e 136 634
e 136 666
e 136 635
e 136 668
e 136 1290
e 136 1291
e 136 1055
e 136 1056
e 137 545
e 137 546
e 137 835
e 137 833
e 137 897
e 137 899
e 137 917
e 137 919
e 137 1277
e 137 1279
e 138 834
e 138 547
e 138 836
e 138 898
e 138 548
e 138 918
e 138 920
e 138 900
e 138 1278
e 138 1280
e 139 1233
e 139 1260
e 139 1093
e 139 1095
e 139 1257
e 139 829
e 139 1176
e 139 433
e 139 1235
e 139 436
e 139 469
e 139 472
e 139 1113
e 139 1173
e 139 1116
e 139 509
e 139 510
e 139 831
e 140 1174
e 140 1094
e 140 1096
e 140 1258
e 140 1234
e 140 434
e 140 435
e 140 1236
e 140 470
e 140 471
e 140 1175
e 140 1114
e 140 1115
e 140 832
e 140 1259
e 140 830
e 140 511
e 140 512
e 141 1061
e 141 1062
e 141 489
e 141 492
e 141 301
e 141 303
e 141 817
e 141 819
e 141 821
e 141 822
e 141 441
e 141 444
e 141 605
e 141 608
e 142 1063
e 142 1064
e 142 490
e 142 491
e 142 302
e 142 304
e 142 818
e 142 820
e 142 823
e 142 824
e 142 442
e 142 443
e 142 606
e 142 607
e 143 497
e 143 517
e 143 1239
e 143 519
e 143 499
e 143 305
e 143 307
e 143 1045
e 143 1047
e 143 1081
e 143 1237
e 143 1084
e 143 883
e 143 881
e 144 498
e 144 1238
e 144 518
e 144 520
e 144 1240
e 144 500
e 144 306
e 144 308
e 144 1046
e 144 1048
e 144 1082
e 144 1083
e 144 884
e 144 882
e 145 1217
e 145 1196
e 145 261
e 145 263
e 145 1065
e 145 1068
e 145 1037
e 145 1039
e 145 1193
e 145 1220
e 145 757
e 145 1206
e 145 759
e 145 1274
e 145 729
e 145 1205
e 145 731
e 145 1117
e 145 1273
e 145 1119
e 146 1218
e 146 1219
e 146 1276
e 146 262
e 146 264
e 146 1066
e 146 1067
e 146 1208
e 146 1038
e 146 1040
e 146 1195
e 146 758
e 146 1207
e 146 760
e 146 730
e 146 1275
e 146 732
e 146 1194
e 146 1118
e 146 1120
e 147 289
e 147 291
e 147 413
e 147 1273
e 147 1177
e 147 1275
e 147 1180
e 147 797
e 147 798
e 147 416
e 148 290
e 148 292
e 148 415
e 148 1274
e 148 1178
e 148 1179
e 148 1276
e 148 414
e 148 799
e 148 800
e 149 449
e 149 1089
e 149 451
e 149 1092
e 149 1001
e 149 1251
e 149 1003
e 149 1249
e 149 373
e 149 376
e 150 450
e 150 1091
e 150 452
e 150 1090
e 150 1002
e 150 1004
e 150 1252
e 150 374
e 150 375
e 150 1250
e 151 1161
e 151 1164
e 151 461
e 151 463
e 151 821
e 151 823
e 151 857
e 151 859
e 151 765
e 151 767
e 152 1162
e 152 1163
e 152 462
e 152 464
e 152 822
e 152 824
e 152 858
e 152 860
e 152 766
e 152 768
e 153 577
e 153 579
e 153 485
e 153 487
e 153 681
e 153 684
e 153 533
e 153 536
e 154 578
e 154 580
e 154 486
e 154 488
e 154 682
e 154 683
e 154 534
e 154 535
e 155 833
e 155 1141
e 155 836
e 155 861
e 155 1153
e 155 621
e 155 623
e 155 561
e 155 562
e 155 1156
e 155 661
e 155 863
e 155 663
e 155 1144
e 155 793
e 155 794
e 155 669
e 155 671
e 156 1155
e 156 834
e 156 835
e 156 862
e 156 1154
e 156 1142
e 156 864
e 156 622
e 156 624
e 156 563
e 156 564
e 156 662
e 156 1143
e 156 664
e 156 795
e 156 796
e 156 670
e 156 672
e 157 325
e 157 327
e 157 393
e 157 395
e 157 525
e 157 527
e 157 1233
e 157 1236
e 157 309
e 157 311
e 157 925
e 157 928
e 158 326
e 158 328
e 158 394
e 158 396
e 158 526
e 158 528
e 158 1234
e 158 1235
e 158 310
e 158 312
e 158 926
e 158 927
e 159 353
e 159 1185
e 159 355
e 159 973
e 159 1187
e 159 976
e 159 977
e 159 979
e 159 501
e 159 503
e 159 1053
e 159 1055
e 160 354
e 160 356
e 160 1188
e 160 1186
e 160 974
e 160 975
e 160 978
e 160 980
e 160 502
e 160 504
e 160 1054
e 160 1056
e 161 1157
e 161 1159
e 161 849
e 161 851
e 161 285
e 161 286
e 162 1158
e 162 1160
e 162 850
e 162 852
e 162 287
e 162 288
e 163 1105
e 163 849
e 163 297
e 163 299
e 163 364
e 163 1293
e 163 1296
e 163 401
e 163 361
e 163 1107
e 163 404
e 163 629
e 163 631
e 163 852
e 164 1106
e 164 850
e 164 298
e 164 363
e 164 300
e 164 851
e 164 1295
e 164 1294
e 164 402
e 164 403
e 164 1108
e 164 630
e 164 362
e 164 632
e 165 801
e 165 929
e 165 931
e 165 804
e 165 873
e 165 874
e 165 749
e 165 752
e 165 625
e 165 628
e 165 765
e 165 768
e 166 802
e 166 803
e 166 932
e 166 930
e 166 875
e 166 876
e 166 750
e 166 751
e 166 626
e 166 627
e 166 766
e 166 767
e 167 977
e 167 773
e 167 776
e 167 649
e 167 557
e 167 652
e 167 301
e 167 559
e 167 304
e 167 337
e 167 339
e 167 980
e 167 345
e 167 348
e 168 774
e 168 775
e 168 978
e 168 650
e 168 651
e 168 302
e 168 303
e 168 558
e 168 338
e 168 979
e 168 340
e 168 346
e 168 347
e 168 560
e 169 425
e 169 427
e 169 781
e 169 783
e 169 885
e 169 887
e 169 1241
e 169 1244
e 169 1085
e 169 1087
e 170 426
e 170 428
e 170 782
e 170 784
e 170 886
e 170 888
e 170 1242
e 170 1243
e 170 1086
e 170 1088
e 171 1041
e 171 613
e 171 614
e 171 893
e 171 365
e 171 367
e 171 913
e 171 914
e 171 1117
e 171 1044
e 171 405
e 171 407
e 171 1120
e 171 669
e 171 895
e 171 672
e 172 1043
e 172 894
e 172 615
e 172 616
e 172 1119
e 172 366
e 172 1118
e 172 368
e 172 1042
e 172 915
e 172 916
e 172 406
e 172 408
e 172 670
e 172 671
e 172 896
e 173 325
e 173 328
e 173 693
e 173 694
e 173 953
e 173 956
e 173 733
e 173 735
e 174 326
e 174 327
e 174 695
e 174 696
e 174 954
e 174 955
e 174 734
e 174 736
e 175 769
e 175 771
e 175 1245
e 175 637
e 175 1247
e 175 309
e 175 287
e 175 312
e 175 285
e 175 639
e 176 770
e 176 772
e 176 1248
e 176 286
e 176 1246
e 176 310
e 176 311
e 176 288
e 176 638
e 176 640
e 177 1125
e 177 1128
e 177 617
e 177 620
e 177 697
e 177 699
e 178 1126
e 178 1127
e 178 618
e 178 619
e 178 698
e 178 700
e 179 453
e 179 1253
e 179 456
e 179 653
e 179 1256
e 179 589
e 179 591
e 179 1073
e 179 1075
e 179 655
e 179 569
e 179 570
e 179 509
e 179 511
e 180 654
e 180 1255
e 180 1254
e 180 454
e 180 455
e 180 590
e 180 592
e 180 1074
e 180 1076
e 180 571
e 180 572
e 180 656
e 180 510
e 180 512
e 181 545
e 181 547
e 181 1061
e 181 1063
e 181 1033
e 181 1035
e 181 497
e 181 1145
e 181 500
e 181 1269
e 181 1271
e 181 1017
e 181 1146
e 181 1020
e 182 546
e 182 548
e 182 1062
e 182 1064
e 182 1034
e 182 1036
e 182 498
e 182 499
e 182 1270
e 182 1272
e 182 1018
e 182 1019
e 182 1148
e 182 1147
e 183 481
e 183 482
e 183 549
e 183 871
e 183 552
e 183 1209
e 183 281
e 183 869
e 183 1211
e 183 284
e 183 797
e 183 799
e 184 483
e 184 484
e 184 550
e 184 551
e 184 872
e 184 870
e 184 282
e 184 283
e 184 1212
e 184 1210
e 184 798
e 184 800
e 185 873
e 185 875
e 185 1229
e 185 1231
e 185 721
e 185 723
e 185 349
e 185 351
e 186 874
e 186 876
e 186 1230
e 186 1232
e 186 722
e 186 724
e 186 350
e 186 352
e 187 689
e 187 876
e 187 613
e 187 615
e 187 1266
e 187 425
e 187 428
e 187 1265
e 187 561
e 187 873
e 187 563
e 187 692
e 187 989
e 187 991
e 188 614
e 188 616
e 188 426
e 188 427
e 188 1267
e 188 990
e 188 562
e 188 691
e 188 564
e 188 874
e 188 690
e 188 1268
e 188 875
e 188 992
e 189 385
e 189 641
e 189 643
e 189 388
e 189 961
e 189 809
e 189 812
e 189 964
e 189 1205
e 189 1207
e 189 825
e 189 827
e 190 386
e 190 387
e 190 644
e 190 642
e 190 810
e 190 811
e 190 962
e 190 963
e 190 1206
e 190 1208
e 190 826
e 190 828
e 191 353
e 191 356
e 191 1221
e 191 1224
e 191 661
e 191 664
e 192 354
e 192 355
e 192 1222
e 192 1223
e 192 662
e 192 663
e 193 577
e 193 580
e 193 389
e 193 390
e 193 1097
e 193 1099
e 193 1197
e 193 1199
e 193 1149
e 193 1152
e 194 578
e 194 579
e 194 391
e 194 392
e 194 1098
e 194 1100
e 194 1198
e 194 1200
e 194 1150
e 194 1151
e 195 1036
e 195 517
e 195 520
e 195 1033
e 195 680
e 195 461
e 195 464
e 195 913
e 195 915
e 195 405
e 195 408
e 195 729
e 195 677
e 195 732
e 195 541
e 195 543
e 196 518
e 196 519
e 196 914
e 196 1034
e 196 1035
e 196 462
e 196 463
e 196 679
e 196 678
e 196 916
e 196 406
e 196 407
e 196 730
e 196 731
e 196 542
e 196 544
e 197 1169
e 197 1172
e 197 1277
e 197 273
e 197 276
e 197 565
e 197 568
e 197 1280
e 197 989
e 197 992
e 198 1170
e 198 1171
e 198 1278
e 198 274
e 198 275
e 198 566
e 198 567
e 198 1279
e 198 990
e 198 991
e 199 1265
e 199 805
e 199 806
e 199 745
e 199 748
e 199 305
e 199 1267
e 199 308
e 199 437
e 199 438
e 200 807
e 200 808
e 200 746
e 200 747
e 200 1266
e 200 306
e 200 307
e 200 1268
e 200 439
e 200 440
e 201 1285
e 201 1288
e 201 1129
e 201 1005
e 201 1132
e 201 909
e 201 1007
e 201 912
e 201 789
e 201 1111
e 201 792
e 201 889
e 201 1109
e 201 892
e 201 509
e 201 512
e 202 1286
e 202 1287
e 202 1130
e 202 1131
e 202 910
e 202 911
e 202 1006
e 202 790
e 202 791
e 202 1112
e 202 890
e 202 891
e 202 1008
e 202 510
e 202 511
e 202 1110
e 203 1057
e 203 1273
e 203 985
e 203 901
e 203 902
e 203 1276
e 203 1005
e 203 1008
e 203 857
e 203 1060
e 203 597
e 203 1147
e 203 600
e 203 761
e 203 1145
e 203 763
e 203 860
e 203 987
e 204 1058
e 204 1059
e 204 988
e 204 903
e 204 904
e 204 1274
e 204 1146
e 204 1006
e 204 1007
e 204 986
e 204 1148
e 204 598
e 204 599
e 204 858
e 204 762
e 204 859
e 204 764
e 204 1275
e 205 937
e 205 971
e 205 940
e 205 760
e 205 969
e 205 917
e 205 920
e 205 757
e 206 759
e 206 938
e 206 939
e 206 972
e 206 758
e 206 919
e 206 970
e 206 918
e 207 481
e 207 483
e 207 261
e 207 264
e 207 616
e 207 1165
e 207 1168
e 207 337
e 207 340
e 207 1077
e 207 1080
e 207 985
e 207 613
e 207 988
e 208 482
e 208 484
e 208 262
e 208 263
e 208 615
e 208 1167
e 208 1166
e 208 338
e 208 339
e 208 1078
e 208 1079
e 208 986
e 208 987
e 208 614
e 209 1025
e 209 1028
e 209 553
e 209 554
e 209 1004
e 209 593
e 209 1001
e 209 596
e 209 981
e 209 983
e 209 1209
e 209 1212
e 210 1026
e 210 1027
e 210 1002
e 210 555
e 210 556
e 210 594
e 210 595
e 210 982
e 210 984
e 210 1210
e 210 1211
e 210 1003
e 211 1101
e 211 1104
e 211 1201
e 211 921
e 211 1203
e 211 793
e 211 795
e 211 924
e 211 381
e 211 383
e 212 1102
e 212 1103
e 212 1202
e 212 1204
e 212 794
e 212 922
e 212 923
e 212 796
e 212 382
e 212 384
e 213 1157
e 213 1160
e 213 1197
e 213 845
e 213 846
e 213 1200
e 213 817
e 213 820
e 213 501
e 213 504
e 213 601
e 213 604
e 213 861
e 213 864
e 214 1199
e 214 1158
e 214 1159
e 214 1198
e 214 847
e 214 848
e 214 818
e 214 819
e 214 502
e 214 503
e 214 602
e 214 603
e 214 862
e 214 863
e 215 513
e 215 1281
e 215 515
e 215 421
e 215 903
e 215 807
e 215 424
e 215 553
e 215 555
e 215 1109
e 215 1283
e 215 369
e 215 371
e 215 1013
e 215 1112
e 215 1016
e 215 805
e 215 901
e 216 514
e 216 516
e 216 422
e 216 423
e 216 808
e 216 1284
e 216 554
e 216 556
e 216 1282
e 216 370
e 216 372
e 216 904
e 216 1014
e 216 1015
e 216 902
e 216 1111
e 216 1110
e 216 806
e 217 673
e 217 1009
e 217 675
e 217 901
e 217 904
e 217 1096
e 217 813
e 217 816
e 217 881
e 217 1011
e 217 884
e 217 1205
e 217 1208
e 217 505
e 217 1093
e 217 508
e 218 674
e 218 676
e 218 902
e 218 903
e 218 1010
e 218 814
e 218 815
e 218 882
e 218 883
e 218 1012
e 218 1206
e 218 1207
e 218 506
e 218 507
e 218 1095
e 218 1094
e 219 321
e 219 1121
e 219 323
e 219 697
e 219 1123
e 219 377
e 219 313
e 219 315
e 219 700
e 219 379
e 220 322
e 220 324
e 220 1122
e 220 698
e 220 1124
e 220 378
e 220 314
e 220 699
e 220 380
e 220 316
e 221 289
e 221 1121
e 221 292
e 221 333
e 221 336
e 221 1124
e 221 1021
e 221 1024
e 222 290
e 222 291
e 222 1123
e 222 1122
e 222 334
e 222 335
e 222 1022
e 222 1023
e 223 545
e 223 832
e 223 548
e 223 581
e 223 583
e 223 297
e 223 829
e 223 331
e 223 300
e 223 621
e 223 877
e 223 624
e 223 880
e 223 329
e 223 821
e 223 824
e 223 793
e 223 796
e 223 637
e 223 640
e 224 546
e 224 547
e 224 831
e 224 878
e 224 582
e 224 584
e 224 298
e 224 299
e 224 332
e 224 622
e 224 623
e 224 830
e 224 879
e 224 822
e 224 823
e 224 330
e 224 794
e 224 795
e 224 638
e 224 639
e 225 1281
e 225 1100
e 225 869
e 225 872
e 225 265
e 225 1284
e 225 268
e 225 397
e 225 400
e 225 1073
e 225 1097
e 225 1076
e 225 725
e 225 727
e 226 1282
e 226 1283
e 226 870
e 226 871
e 226 266
e 226 267
e 226 398
e 226 399
e 226 1074
e 226 1075
e 226 726
e 226 1098
e 226 728
e 226 1099
e 227 865
e 227 867
e 227 393
e 227 733
e 227 396
e 227 589
e 227 592
e 227 665
e 227 668
e 227 445
e 227 736
e 227 448
e 228 866
e 228 868
e 228 394
e 228 395
e 228 590
e 228 591
e 228 734
e 228 735
e 228 666
e 228 667
e 228 446
e 228 447
e 229 896
e 229 389
e 229 391
e 229 893
e 229 1248
e 229 761
e 229 1245
e 229 569
e 229 571
e 229 764
e 229 381
e 229 384
e 230 390
e 230 392
e 230 894
e 230 1247
e 230 1246
e 230 895
e 230 762
e 230 570
e 230 763
e 230 572
e 230 382
e 230 383
e 231 705
e 231 708
e 231 685
e 231 688
e 231 529
e 231 532
e 231 1237
e 231 1240
e 232 706
e 232 707
e 232 686
e 232 687
e 232 530
e 232 531
e 232 1238
e 232 1239
e 233 933
e 233 960
e 233 936
e 233 585
e 233 701
e 233 587
e 233 957
e 233 913
e 233 916
e 233 377
e 233 380
e 233 285
e 233 704
e 233 288
e 234 934
e 234 935
e 234 959
e 234 586
e 234 588
e 234 958
e 234 702
e 234 914
e 234 915
e 234 703
e 234 378
e 234 379
e 234 286
e 234 287
e 235 888
e 235 588
e 235 553
e 235 556
e 235 365
e 235 368
e 235 465
e 235 585
e 235 468
e 235 725
e 235 728
e 235 885
e 235 1053
e 235 1056
e 236 887
e 236 554
e 236 555
e 236 366
e 236 367
e 236 1054
e 236 466
e 236 467
e 236 726
e 236 727
e 236 586
e 236 587
e 236 1055
e 236 886
e 237 673
e 237 1185
e 237 676
e 237 389
e 237 1031
e 237 392
e 237 457
e 237 1229
e 237 460
e 237 845
e 237 847
e 237 1232
e 237 1188
e 237 1029
e 238 674
e 238 675
e 238 390
e 238 391
e 238 1032
e 238 458
e 238 459
e 238 1186
e 238 846
e 238 1231
e 238 848
e 238 1230
e 238 1187
e 238 1030
e 239 321
e 239 513
e 239 995
e 239 324
e 239 993
e 239 969
e 239 1069
e 239 972
e 239 525
e 239 1012
e 239 528
e 239 657
e 239 659
e 239 516
e 239 1009
e 239 1072
e 239 541
e 239 544
e 240 322
e 240 323
e 240 994
e 240 1011
e 240 514
e 240 970
e 240 971
e 240 526
e 240 527
e 240 1070
e 240 1010
e 240 658
e 240 515
e 240 660
e 240 1071
e 240 542
e 240 543
e 240 996
e 241 993
e 241 996
e 241 581
e 241 584
e 241 488
e 241 1037
e 241 1040
e 241 1269
e 241 1272
e 241 485
e 242 994
e 242 995
e 242 486
e 242 583
e 242 487
e 242 1038
e 242 1039
e 242 1270
e 242 1271
e 242 582
e 243 632
e 243 717
e 243 720
e 243 629
e 243 1048
e 243 1045
e 243 1085
e 243 1088
e 244 631
e 244 718
e 244 719
e 244 1046
e 244 1047
e 244 1086
e 244 1087
e 244 630
e 245 641
e 245 769
e 245 644
e 245 1029
e 245 1204
e 245 1032
e 245 781
e 245 1064
e 245 653
e 245 656
e 245 785
e 245 772
e 245 437
e 245 439
e 245 984
e 245 788
e 245 981
e 245 784
e 245 1201
e 245 1061
e 246 642
e 246 643
e 246 1203
e 246 1030
e 246 1031
e 246 770
e 246 1202
e 246 783
e 246 654
e 246 655
e 246 782
e 246 786
e 246 787
e 246 438
e 246 983
e 246 440
e 246 771
e 246 1063
e 246 1062
e 246 982
e 247 865
e 247 1249
e 247 868
e 247 1252
e 247 521
e 247 524
e 247 657
e 247 660
e 248 866
e 248 867
e 248 1250
e 248 522
e 248 523
e 248 1251
e 248 658
e 248 659
e 249 693
e 249 695
e 249 1145
e 249 1148
e 249 349
e 249 352
e 250 694
e 250 696
e 250 1146
e 250 1147
e 250 350
e 250 351
e 251 417
e 251 412
e 251 473
e 251 709
e 251 712
e 251 440
e 251 753
e 251 409
e 251 420
e 251 277
e 251 280
e 251 313
e 251 437
e 251 756
e 251 316
e 251 317
e 251 476
e 251 320
e 252 475
e 252 418
e 252 419
e 252 439
e 252 711
e 252 474
e 252 755
e 252 754
e 252 710
e 252 411
e 252 278
e 252 279
e 252 410
e 252 314
e 252 315
e 252 318
e 252 319
e 252 438
e 253 449
e 253 452
e 253 741
e 253 744
e 253 369
e 253 372
e 253 341
e 253 344
e 253 825
e 253 828
e 254 450
e 254 451
e 254 742
e 254 743
e 254 370
e 254 371
e 254 342
e 254 343
e 254 826
e 254 827
e 255 929
e 255 1265
e 255 932
e 255 357
e 255 1268
e 255 360
e 255 329
e 255 332
e 255 493
e 255 496
e 255 721
e 255 724
e 255 569
e 255 572
e 256 930
e 256 931
e 256 358
e 256 359
e 256 1266
e 256 330
e 256 331
e 256 494
e 256 495
e 256 1267
e 256 722
e 256 723
e 256 570
e 256 571
e 257 481
e 257 484
e 257 845
e 257 557
e 257 560
e 257 848
e 257 797
e 257 800
e 258 482
e 258 483
e 258 558
e 258 559
e 258 846
e 258 847
e 258 798
e 258 799
e 259 897
e 259 1105
e 259 1108
e 259 900
e 259 293
e 259 296
e 259 1133
e 259 808
e 259 429
e 259 432
e 259 561
e 259 564
e 259 693
e 259 696
e 259 805
e 259 1136
e 260 898
e 260 899
e 260 1135
e 260 1107
e 260 294
e 260 295
e 260 1106
e 260 430
e 260 431
e 260 1134
e 260 562
e 260 563
e 260 807
e 260 694
e 260 695
e 260 806